70 350

63 28
55 32
38 5
75 1
25 30
70 19
17 7
84 35
96 26
15 21
65 50
72 47
94 23
50 10
91 42
49 20
14 11
42 29
54 3
88 45
100 13
21 37
62 19
62 8
61 42
80 12
51 22
63 11
67 38
78 33
48 25
77 17
28 43
29 32
83 11
58 10
73 21
65 29
44 33
17 40
40 19
79 28
87 41
53 31
10 2
92 30
93 8
84 7
33 39
99 23
24 2
44 22
36 22
43 8
89 41
41 27
26 35
45 33
50 22
44 44
53 24
47 12
10 29
62 26
40 32
45 20
85 48
90 3
99 1
23 14
